30
1 0 293
3 2 314
4 3 74
5 2 92
5 4 240
6 0 192
7 1 152
8 3 55
9 2 287
9 4 171
9 6 75
10 0 304
10 1 296
12 7 189
12 9 179
13 8 107
13 12 285
14 0 19
14 1 90
14 4 157
14 13 38
15 0 316
15 7 227
15 12 66
16 3 195
17 1 9
17 2 312
17 3 67
17 11 56
17 12 315
17 16 267
18 0 295
18 6 246
18 16 93
18 17 313
19 11 100
19 17 222
19 18 50
20 2 17
20 12 294
20 15 227
20 19 202
21 1 21
21 11 243
21 13 138
22 5 157
22 18 166
22 21 229
23 1 155
23 4 278
23 10 95
23 11 216
24 5 279
24 12 184
24 13 168
24 19 139
25 6 318
25 20 251
25 22 64
26 6 56
26 7 239
26 14 149
26 15 27
26 23 208
27 4 71
27 8 118
27 10 87
27 12 273
27 20 68
28 2 228
28 11 300
28 12 40
28 17 190
28 26 137
29 6 176
29 8 220
29 14 175
29 16 170
29 24 59
29 26 110
